p tw 20 53
0 1
0 14
0 19
0 6
0 13
0 9
0 15
1 18
1 6
1 4
2 3
2 5
2 10
2 18
2 11
3 19
3 12
3 8
3 6
4 5
4 9
4 19
4 8
4 10
4 13
5 6
5 13
5 16
5 7
6 10
6 9
6 7
6 11
6 8
7 8
7 17
7 19
8 9
8 15
8 18
9 10
9 18
10 13
10 12
10 11
10 15
11 12
11 16
12 14
13 16
15 17
16 17
18 19
